50
10
0 1 51 101 151 201 251 301 351 401
10
0 2 52 102 152 202 252 302 352 402
10
0 3 53 103 153 203 253 303 353 403
10
0 4 54 104 154 204 254 304 354 404
10
0 5 55 105 155 205 255 305 355 405
10
0 6 56 106 156 206 256 306 356 406
10
0 7 57 107 157 207 257 307 357 407
10
0 8 58 108 158 208 258 308 358 408
10
0 9 59 109 159 209 259 309 359 409
10
0 10 60 110 160 210 260 310 360 410
10
0 11 61 111 161 211 261 311 361 411
10
0 12 62 112 162 212 262 312 362 412
10
0 13 63 113 163 213 263 313 363 413
10
0 14 64 114 164 214 264 314 364 414
10
0 15 65 115 165 215 265 315 365 415
10
0 16 66 116 166 216 266 316 366 416
10
0 17 67 117 167 217 267 317 367 417
10
0 18 68 118 168 218 268 318 368 418
10
0 19 69 119 169 219 269 319 369 419
10
0 20 70 120 170 220 270 320 370 420
10
0 21 71 121 171 221 271 321 371 421
10
0 22 72 122 172 222 272 322 372 422
10
0 23 73 123 173 223 273 323 373 423
10
0 24 74 124 174 224 274 324 374 424
10
0 25 75 125 175 225 275 325 375 425
10
0 26 76 126 176 226 276 326 376 426
10
0 27 77 127 177 227 277 327 377 427
10
0 28 78 128 178 228 278 328 378 428
10
0 29 79 129 179 229 279 329 379 429
10
0 30 80 130 180 230 280 330 380 430
10
0 31 81 131 181 231 281 331 381 431
10
0 32 82 132 182 232 282 332 382 432
10
0 33 83 133 183 233 283 333 383 433
10
0 34 84 134 184 234 284 334 384 434
10
0 35 85 135 185 235 285 335 385 435
10
0 36 86 136 186 236 286 336 386 436
10
0 37 87 137 187 237 287 337 387 437
10
0 38 88 138 188 238 288 338 388 438
10
0 39 89 139 189 239 289 339 389 439
10
0 40 90 140 190 240 290 340 390 440
10
0 41 91 141 191 241 291 341 391 441
9
0 42 92 142 192 242 292 342 392
9
0 43 93 143 193 243 293 343 393
9
0 44 94 144 194 244 294 344 394
9
0 45 95 145 195 245 295 345 395
9
0 46 96 146 196 246 296 346 396
9
0 47 97 147 197 247 297 347 397
9
0 48 98 148 198 248 298 348 398
9
0 49 99 149 199 249 299 349 399
9
0 50 100 150 200 250 300 350 400
